32	0

0	2	2	3
2	2	4	5
2	2	4	5
5	1	6
9	2	7	9
4	2	7	9
3	2	8	10
6	2	11	12
8	1	10
7	2	11	12
9	1	13
3	2	13	14
3	2	15	16
8	2	15	16
9	2	17	18
6	2	17	18
8	1	19
10	1	19
1	2	20	22
8	2	21	23
10	2	25	26
10	1	23
5	2	24	26
4	1	25
4	2	27	29
5	2	27	29
1	2	28	30
4	1	31
9	1	31
4	1	31
5	1	32
0	0
